(benchmark gametime
:status unknown
:logic QF_AUFBV
:extrafuns ((gtINDEX63  BitVec[32]))
:extrafuns ((gtFIELD__bitsForTID0__gtAGG____anonstruct_D_Work_4  Array[32:32]))
:extrafuns ((gtINDEX64  BitVec[32]))
:extrafuns ((gtAGG__rtDWork  BitVec[32]))
:extrafuns ((gtINDEX61  BitVec[32]))
:extrafuns ((gtINDEX62  BitVec[32]))
:extrafuns ((gtINDEX59  BitVec[32]))
:extrafuns ((gtINDEX60  BitVec[32]))
:extrafuns ((gtINDEX57  BitVec[32]))
:extrafuns ((gtINDEX58  BitVec[32]))
:extrafuns ((gtINDEX56  BitVec[32]))
:extrafuns ((gtINDEX55  BitVec[32]))
:extrafuns ((gtINDEX54  BitVec[32]))
:extrafuns ((gtINDEX53  BitVec[32]))
:extrafuns ((gtINDEX51  BitVec[32]))
:extrafuns ((gtINDEX52  BitVec[32]))
:extrafuns ((gtINDEX49  BitVec[32]))
:extrafuns ((gtINDEX50  BitVec[32]))
:extrafuns ((gtINDEX47  BitVec[32]))
:extrafuns ((gtINDEX48  BitVec[32]))
:extrafuns ((gtINDEX45  BitVec[32]))
:extrafuns ((gtINDEX46  BitVec[32]))
:extrafuns ((gtINDEX43  BitVec[32]))
:extrafuns ((gtINDEX44  BitVec[32]))
:extrafuns ((gtINDEX41  BitVec[32]))
:extrafuns ((gtINDEX42  BitVec[32]))
:extrafuns ((gtINDEX39  BitVec[32]))
:extrafuns ((gtINDEX40  BitVec[32]))
:extrafuns ((gtINDEX37  BitVec[32]))
:extrafuns ((gtINDEX38  BitVec[32]))
:extrafuns ((gtINDEX35  BitVec[32]))
:extrafuns ((gtINDEX36  BitVec[32]))
:extrafuns ((gtINDEX33  BitVec[32]))
:extrafuns ((gtINDEX34  BitVec[32]))
:extrafuns ((gtINDEX31  BitVec[32]))
:extrafuns ((gtINDEX32  BitVec[32]))
:extrafuns ((gtINDEX29  BitVec[32]))
:extrafuns ((gtINDEX30  BitVec[32]))
:extrafuns ((gtINDEX28  BitVec[32]))
:extrafuns ((gtINDEX27  BitVec[32]))
:extrafuns ((gtINDEX26  BitVec[32]))
:extrafuns ((gtINDEX25  BitVec[32]))
:extrafuns ((gtINDEX24  BitVec[32]))
:extrafuns ((gtINDEX22  BitVec[32]))
:extrafuns ((gtINDEX23  BitVec[32]))
:extrafuns ((gtINDEX20  BitVec[32]))
:extrafuns ((gtINDEX21  BitVec[32]))
:extrafuns ((gtINDEX18  BitVec[32]))
:extrafuns ((gtINDEX19  BitVec[32]))
:extrafuns ((gtINDEX16  BitVec[32]))
:extrafuns ((gtINDEX17  BitVec[32]))
:extrafuns ((gtINDEX14  BitVec[32]))
:extrafuns ((gtINDEX15  BitVec[32]))
:extrafuns ((gtINDEX12  BitVec[32]))
:extrafuns ((gtINDEX13  BitVec[32]))
:extrafuns ((gtINDEX10  BitVec[32]))
:extrafuns ((gtINDEX11  BitVec[32]))
:extrafuns ((gtINDEX8  BitVec[32]))
:extrafuns ((gtINDEX9  BitVec[32]))
:extrafuns ((gtINDEX6  BitVec[32]))
:extrafuns ((gtINDEX7  BitVec[32]))
:extrafuns ((gtINDEX4  BitVec[32]))
:extrafuns ((gtINDEX5  BitVec[32]))
:extrafuns ((gtINDEX2  BitVec[32]))
:extrafuns ((gtINDEX3  BitVec[32]))
:extrafuns ((gtINDEX0  BitVec[32]))
:extrafuns ((gtINDEX1  BitVec[32]))
:extrafuns ((gtFIELD__is_Eng__gtAGG____anonstruct_bitsForTID0_5_1_  Array[32:1]))
:extrafuns ((gtFIELD__is_Eng__gtAGG____anonstruct_bitsForTID0_5_2_  Array[32:1]))
:extrafuns ((sf_previousEvent_1_  BitVec[32]))
:extrafuns ((sfEvent__2_  BitVec[32]))
:extrafuns ((gtFIELD__is_Eng__gtAGG____anonstruct_bitsForTID0_5  Array[32:1]))
:extrafuns ((gtFIELD__sent__gtAGG____anonstruct_D_Work_4_1_  Array[32:32]))
:extrafuns ((gtFIELD__sent__gtAGG____anonstruct_D_Work_4_2_  Array[32:32]))
:extrafuns ((gtFIELD__is_active_Eng__gtAGG____anonstruct_bitsForTID0_5  Array[32:1]))
:extrafuns ((gtFIELD__is_active_PURI__gtAGG____anonstruct_bitsForTID0_5  Array[32:1]))
:extrafuns ((gtFIELD__is_active_PVRP__gtAGG____anonstruct_bitsForTID0_5  Array[32:1]))
:extrafuns ((gtFIELD__is_active_PPVARP__gtAGG____anonstruct_bitsForTID0_5  Array[32:1]))
:extrafuns ((gtFIELD__is_active_PLRI__gtAGG____anonstruct_bitsForTID0_5  Array[32:1]))
:extrafuns ((gtFIELD__is_PAVI__gtAGG____anonstruct_bitsForTID0_5_1_  Array[32:3]))
:extrafuns ((gtFIELD__is_PAVI__gtAGG____anonstruct_bitsForTID0_5_2_  Array[32:3]))
:extrafuns ((gtFIELD__is_active_PAVI__gtAGG____anonstruct_bitsForTID0_5  Array[32:1]))
:extrafuns ((sfEvent__1_  BitVec[32]))
:extrafuns ((sfEvent_  BitVec[32]))
:extrafuns ((gtFIELD__sent__gtAGG____anonstruct_D_Work_4  Array[32:32]))
:extrafuns ((gtFIELD__is_PAVI__gtAGG____anonstruct_bitsForTID0_5  Array[32:3]))
:extrapreds ((constraint106 ))
:extrapreds ((constraint105 ))
:extrapreds ((constraint104 ))
:extrapreds ((constraint103 ))
:extrapreds ((constraint102 ))
:extrapreds ((constraint101 ))
:extrapreds ((constraint100 ))
:extrapreds ((constraint99 ))
:extrapreds ((constraint98 ))
:extrapreds ((constraint97 ))
:extrapreds ((constraint96 ))
:extrapreds ((constraint95 ))
:extrapreds ((constraint94 ))
:extrapreds ((constraint93 ))
:extrapreds ((constraint92 ))
:extrapreds ((constraint91 ))
:extrapreds ((constraint90 ))
:extrapreds ((constraint89 ))
:extrapreds ((constraint88 ))
:extrapreds ((constraint87 ))
:extrapreds ((constraint86 ))
:extrapreds ((constraint85 ))
:extrapreds ((constraint84 ))
:extrapreds ((constraint83 ))
:extrapreds ((constraint82 ))
:extrapreds ((constraint81 ))
:extrapreds ((constraint80 ))
:extrapreds ((constraint79 ))
:extrapreds ((constraint78 ))
:extrapreds ((constraint77 ))
:extrapreds ((constraint76 ))
:extrapreds ((constraint75 ))
:extrapreds ((constraint74 ))
:extrapreds ((constraint73 ))
:extrapreds ((constraint72 ))
:extrapreds ((constraint71 ))
:extrapreds ((constraint70 ))
:extrapreds ((constraint69 ))
:extrapreds ((constraint68 ))
:extrapreds ((constraint67 ))
:extrapreds ((constraint66 ))
:extrapreds ((constraint65 ))
:extrapreds ((constraint64 ))
:extrapreds ((constraint63 ))
:extrapreds ((constraint62 ))
:extrapreds ((constraint61 ))
:extrapreds ((constraint60 ))
:extrapreds ((constraint59 ))
:extrapreds ((constraint58 ))
:extrapreds ((constraint57 ))
:extrapreds ((constraint56 ))
:extrapreds ((constraint55 ))
:extrapreds ((constraint54 ))
:extrapreds ((constraint53 ))
:extrapreds ((constraint52 ))
:extrapreds ((constraint51 ))
:extrapreds ((constraint50 ))
:extrapreds ((constraint49 ))
:extrapreds ((constraint48 ))
:extrapreds ((constraint47 ))
:extrapreds ((constraint46 ))
:extrapreds ((constraint45 ))
:extrapreds ((constraint44 ))
:extrapreds ((constraint43 ))
:extrapreds ((constraint42 ))
:extrapreds ((constraint41 ))
:extrapreds ((constraint40 ))
:extrapreds ((constraint39 ))
:extrapreds ((constraint38 ))
:extrapreds ((constraint37 ))
:extrapreds ((constraint36 ))
:extrapreds ((constraint35 ))
:extrapreds ((constraint34 ))
:extrapreds ((constraint33 ))
:extrapreds ((constraint32 ))
:extrapreds ((constraint31 ))
:extrapreds ((constraint30 ))
:extrapreds ((constraint29 ))
:extrapreds ((constraint28 ))
:extrapreds ((constraint27 ))
:extrapreds ((constraint26 ))
:extrapreds ((constraint25 ))
:extrapreds ((constraint24 ))
:extrapreds ((constraint23 ))
:extrapreds ((constraint22 ))
:extrapreds ((constraint21 ))
:extrapreds ((constraint20 ))
:extrapreds ((constraint19 ))
:extrapreds ((constraint18 ))
:extrapreds ((constraint17 ))
:extrapreds ((constraint16 ))
:extrapreds ((constraint15 ))
:extrapreds ((constraint14 ))
:extrapreds ((constraint13 ))
:extrapreds ((constraint12 ))
:extrapreds ((constraint11 ))
:extrapreds ((constraint10 ))
:extrapreds ((constraint9 ))
:extrapreds ((constraint8 ))
:extrapreds ((constraint7 ))
:extrapreds ((constraint6 ))
:extrapreds ((constraint5 ))
:extrapreds ((constraint4 ))
:extrapreds ((constraint3 ))
:extrapreds ((constraint2 ))
:extrapreds ((constraint1 ))
:extrapreds ((constraint0 ))
:formula
(flet ($x565 (and constraint0 constraint1 constraint2 constraint3 constraint4 constraint5 constraint6 constraint7 constraint8 constraint9 constraint10 constraint11 constraint12 constraint13 constraint14 constraint15 constraint16 constraint17 constraint18 constraint19 constraint20 constraint21 constraint22 constraint23 constraint24 constraint25 constraint26 constraint27 constraint28 constraint29 constraint30 constraint31 constraint32 constraint33 constraint34 constraint35 constraint36 constraint37 constraint38 constraint39 constraint40 constraint41 constraint42 constraint43 constraint44 constraint45 constraint46 constraint47 constraint48 constraint49 constraint50 constraint51 constraint52 constraint53 constraint54 constraint55 constraint56 constraint57 constraint58 constraint59 constraint60 constraint61 constraint62 constraint63 constraint64 constraint65 constraint66 constraint67 constraint68 constraint69 constraint70 constraint71 constraint72 constraint73 constraint74 constraint75 constraint76 constraint77 constraint78 constraint79 constraint80 constraint81 constraint82 constraint83 constraint84 constraint85 constraint86 constraint87 constraint88 constraint89 constraint90 constraint91 constraint92 constraint93 constraint94 constraint95 constraint96 constraint97 constraint98 constraint99 constraint100 constraint101 constraint102 constraint103 constraint104 constraint105 constraint106))
(flet ($x349 (= gtINDEX64 (select gtFIELD__bitsForTID0__gtAGG____anonstruct_D_Work_4 gtINDEX63)))
(flet ($x345 (= gtINDEX62 (select gtFIELD__bitsForTID0__gtAGG____anonstruct_D_Work_4 gtINDEX61)))
(flet ($x341 (= gtINDEX60 (select gtFIELD__bitsForTID0__gtAGG____anonstruct_D_Work_4 gtINDEX59)))
(flet ($x337 (= gtINDEX58 (select gtFIELD__bitsForTID0__gtAGG____anonstruct_D_Work_4 gtINDEX57)))
(flet ($x329 (= gtINDEX52 (select gtFIELD__bitsForTID0__gtAGG____anonstruct_D_Work_4 gtINDEX51)))
(flet ($x325 (= gtINDEX50 (select gtFIELD__bitsForTID0__gtAGG____anonstruct_D_Work_4 gtINDEX49)))
(flet ($x321 (= gtINDEX48 (select gtFIELD__bitsForTID0__gtAGG____anonstruct_D_Work_4 gtINDEX47)))
(flet ($x317 (= gtINDEX46 (select gtFIELD__bitsForTID0__gtAGG____anonstruct_D_Work_4 gtINDEX45)))
(flet ($x313 (= gtINDEX44 (select gtFIELD__bitsForTID0__gtAGG____anonstruct_D_Work_4 gtINDEX43)))
(flet ($x309 (= gtINDEX42 (select gtFIELD__bitsForTID0__gtAGG____anonstruct_D_Work_4 gtINDEX41)))
(flet ($x305 (= gtINDEX40 (select gtFIELD__bitsForTID0__gtAGG____anonstruct_D_Work_4 gtINDEX39)))
(flet ($x301 (= gtINDEX38 (select gtFIELD__bitsForTID0__gtAGG____anonstruct_D_Work_4 gtINDEX37)))
(flet ($x297 (= gtINDEX36 (select gtFIELD__bitsForTID0__gtAGG____anonstruct_D_Work_4 gtINDEX35)))
(flet ($x293 (= gtINDEX34 (select gtFIELD__bitsForTID0__gtAGG____anonstruct_D_Work_4 gtINDEX33)))
(flet ($x289 (= gtINDEX32 (select gtFIELD__bitsForTID0__gtAGG____anonstruct_D_Work_4 gtINDEX31)))
(flet ($x285 (= gtINDEX30 (select gtFIELD__bitsForTID0__gtAGG____anonstruct_D_Work_4 gtINDEX29)))
(flet ($x276 (= gtINDEX23 (select gtFIELD__bitsForTID0__gtAGG____anonstruct_D_Work_4 gtINDEX22)))
(flet ($x272 (= gtINDEX21 (select gtFIELD__bitsForTID0__gtAGG____anonstruct_D_Work_4 gtINDEX20)))
(flet ($x268 (= gtINDEX19 (select gtFIELD__bitsForTID0__gtAGG____anonstruct_D_Work_4 gtINDEX18)))
(flet ($x264 (= gtINDEX17 (select gtFIELD__bitsForTID0__gtAGG____anonstruct_D_Work_4 gtINDEX16)))
(flet ($x260 (= gtINDEX15 (select gtFIELD__bitsForTID0__gtAGG____anonstruct_D_Work_4 gtINDEX14)))
(flet ($x256 (= gtINDEX13 (select gtFIELD__bitsForTID0__gtAGG____anonstruct_D_Work_4 gtINDEX12)))
(flet ($x252 (= gtINDEX11 (select gtFIELD__bitsForTID0__gtAGG____anonstruct_D_Work_4 gtINDEX10)))
(flet ($x248 (= gtINDEX9 (select gtFIELD__bitsForTID0__gtAGG____anonstruct_D_Work_4 gtINDEX8)))
(flet ($x244 (= gtINDEX7 (select gtFIELD__bitsForTID0__gtAGG____anonstruct_D_Work_4 gtINDEX6)))
(flet ($x240 (= gtINDEX5 (select gtFIELD__bitsForTID0__gtAGG____anonstruct_D_Work_4 gtINDEX4)))
(flet ($x236 (= gtINDEX3 (select gtFIELD__bitsForTID0__gtAGG____anonstruct_D_Work_4 gtINDEX2)))
(flet ($x232 (= gtINDEX1 (select gtFIELD__bitsForTID0__gtAGG____anonstruct_D_Work_4 gtINDEX0)))
(let (?x216 (extract[0:0] bv1[32]))
(let (?x226 (store gtFIELD__is_Eng__gtAGG____anonstruct_bitsForTID0_5_1_ gtINDEX64 ?x216))
(flet ($x433 (iff constraint41 (= gtFIELD__is_Eng__gtAGG____anonstruct_bitsForTID0_5_2_ ?x226)))
(let (?x222 (select gtFIELD__is_Eng__gtAGG____anonstruct_bitsForTID0_5_1_ gtINDEX62))
(let (?x217 (store gtFIELD__is_Eng__gtAGG____anonstruct_bitsForTID0_5 gtINDEX60 ?x216))
(flet ($x427 (iff constraint38 (= gtFIELD__is_Eng__gtAGG____anonstruct_bitsForTID0_5_1_ ?x217)))
(let (?x213 (zero_extend[31] (select gtFIELD__is_Eng__gtAGG____anonstruct_bitsForTID0_5 gtINDEX58)))
(let (?x209 (store gtFIELD__sent__gtAGG____anonstruct_D_Work_4_1_ gtINDEX56 bv0[32]))
(flet ($x423 (iff constraint36 (= gtFIELD__sent__gtAGG____anonstruct_D_Work_4_2_ ?x209)))
(let (?x121 (bvmul bv4294967295[32] bv1[32]))
(flet ($x207 (= (select gtFIELD__sent__gtAGG____anonstruct_D_Work_4_1_ gtINDEX55) ?x121))
(flet ($x203 (= (select gtFIELD__sent__gtAGG____anonstruct_D_Work_4_1_ gtINDEX54) bv9[32]))
(flet ($x199 (= (select gtFIELD__sent__gtAGG____anonstruct_D_Work_4_1_ gtINDEX53) bv4[32]))
(let (?x195 (zero_extend[31] (select gtFIELD__is_Eng__gtAGG____anonstruct_bitsForTID0_5 gtINDEX52)))
(let (?x189 (select gtFIELD__is_active_Eng__gtAGG____anonstruct_bitsForTID0_5 gtINDEX50))
(let (?x183 (select gtFIELD__is_active_PURI__gtAGG____anonstruct_bitsForTID0_5 gtINDEX48))
(let (?x177 (select gtFIELD__is_active_PVRP__gtAGG____anonstruct_bitsForTID0_5 gtINDEX46))
(let (?x171 (select gtFIELD__is_active_PPVARP__gtAGG____anonstruct_bitsForTID0_5 gtINDEX44))
(let (?x165 (select gtFIELD__is_active_PLRI__gtAGG____anonstruct_bitsForTID0_5 gtINDEX42))
(let (?x73 (extract[2:0] bv0[32]))
(let (?x162 (store gtFIELD__is_PAVI__gtAGG____anonstruct_bitsForTID0_5_1_ gtINDEX40 ?x73))
(flet ($x403 (iff constraint26 (= gtFIELD__is_PAVI__gtAGG____anonstruct_bitsForTID0_5_2_ ?x162)))
(let (?x157 (select gtFIELD__is_PAVI__gtAGG____anonstruct_bitsForTID0_5_1_ gtINDEX38))
(let (?x152 (select gtFIELD__is_PAVI__gtAGG____anonstruct_bitsForTID0_5_1_ gtINDEX36))
(let (?x147 (select gtFIELD__is_PAVI__gtAGG____anonstruct_bitsForTID0_5_1_ gtINDEX34))
(let (?x142 (select gtFIELD__is_PAVI__gtAGG____anonstruct_bitsForTID0_5_1_ gtINDEX32))
(let (?x137 (select gtFIELD__is_active_PAVI__gtAGG____anonstruct_bitsForTID0_5 gtINDEX30))
(flet ($x129 (= gtFIELD__sent__gtAGG____anonstruct_D_Work_4_1_ (store gtFIELD__sent__gtAGG____anonstruct_D_Work_4 gtINDEX28 ?x121)))
(flet ($x126 (= (select gtFIELD__sent__gtAGG____anonstruct_D_Work_4 gtINDEX27) bv1[32]))
(flet ($x122 (= (select gtFIELD__sent__gtAGG____anonstruct_D_Work_4 gtINDEX26) ?x121))
(flet ($x116 (= (select gtFIELD__sent__gtAGG____anonstruct_D_Work_4 gtINDEX25) bv9[32]))
(flet ($x111 (= (select gtFIELD__sent__gtAGG____anonstruct_D_Work_4 gtINDEX24) bv4[32]))
(let (?x107 (zero_extend[31] (select gtFIELD__is_Eng__gtAGG____anonstruct_bitsForTID0_5 gtINDEX23)))
(let (?x101 (select gtFIELD__is_active_Eng__gtAGG____anonstruct_bitsForTID0_5 gtINDEX21))
(let (?x95 (select gtFIELD__is_active_PURI__gtAGG____anonstruct_bitsForTID0_5 gtINDEX19))
(let (?x89 (select gtFIELD__is_active_PVRP__gtAGG____anonstruct_bitsForTID0_5 gtINDEX17))
(let (?x83 (select gtFIELD__is_active_PPVARP__gtAGG____anonstruct_bitsForTID0_5 gtINDEX15))
(let (?x77 (select gtFIELD__is_active_PLRI__gtAGG____anonstruct_bitsForTID0_5 gtINDEX13))
(let (?x74 (store gtFIELD__is_PAVI__gtAGG____anonstruct_bitsForTID0_5 gtINDEX11 ?x73))
(flet ($x363 (iff constraint6 (= gtFIELD__is_PAVI__gtAGG____anonstruct_bitsForTID0_5_1_ ?x74)))
(let (?x68 (zero_extend[29] (select gtFIELD__is_PAVI__gtAGG____anonstruct_bitsForTID0_5 gtINDEX9)))
(let (?x62 (zero_extend[29] (select gtFIELD__is_PAVI__gtAGG____anonstruct_bitsForTID0_5 gtINDEX7)))
(let (?x56 (zero_extend[29] (select gtFIELD__is_PAVI__gtAGG____anonstruct_bitsForTID0_5 gtINDEX5)))
(let (?x50 (zero_extend[29] (select gtFIELD__is_PAVI__gtAGG____anonstruct_bitsForTID0_5 gtINDEX3)))
(let (?x43 (select gtFIELD__is_active_PAVI__gtAGG____anonstruct_bitsForTID0_5 gtINDEX1))
(flet ($x564 (and (iff constraint0 (not (= sfEvent_ bv8[32]))) (iff constraint1 (not (= (zero_extend[31] ?x43) bv0[32]))) (iff constraint2 (not (= ?x50 bv1[32]))) (iff constraint3 (not (= ?x56 bv2[32]))) (iff constraint4 (not (= ?x62 bv3[32]))) (iff constraint5 (not (= ?x68 bv4[32]))) $x363 (iff constraint7 (not (not (= (zero_extend[31] ?x77) bv0[32])))) (iff constraint8 (not (not (= (zero_extend[31] ?x83) bv0[32])))) (iff constraint9 (not (not (= (zero_extend[31] ?x89) bv0[32])))) (iff constraint10 (not (not (= (zero_extend[31] ?x95) bv0[32])))) (iff constraint11 (not (= (zero_extend[31] ?x101) bv0[32]))) (iff constraint12 (= ?x107 bv1[32])) (iff constraint13 (not $x111)) (iff constraint14 (not $x116)) (iff constraint15 (not $x122)) (iff constraint16 $x126) (iff constraint17 $x129) (iff constraint18 (= sf_previousEvent_1_ sfEvent_)) (iff constraint19 (= sfEvent__1_ bv2[32])) (iff constraint20 (not (= sfEvent__1_ bv8[32]))) (iff constraint21 (not (= (zero_extend[31] ?x137) bv0[32]))) (iff constraint22 (not (= (zero_extend[29] ?x142) bv1[32]))) (iff constraint23 (not (= (zero_extend[29] ?x147) bv2[32]))) (iff constraint24 (not (= (zero_extend[29] ?x152) bv3[32]))) (iff constraint25 (not (= (zero_extend[29] ?x157) bv4[32]))) $x403 (iff constraint27 (not (not (= (zero_extend[31] ?x165) bv0[32])))) (iff constraint28 (not (not (= (zero_extend[31] ?x171) bv0[32])))) (iff constraint29 (not (not (= (zero_extend[31] ?x177) bv0[32])))) (iff constraint30 (not (not (= (zero_extend[31] ?x183) bv0[32])))) (iff constraint31 (not (= (zero_extend[31] ?x189) bv0[32]))) (iff constraint32 (= ?x195 bv1[32])) (iff constraint33 (not $x199)) (iff constraint34 (not $x203)) (iff constraint35 $x207) $x423 (iff constraint37 (= ?x213 bv1[32])) $x427 (iff constraint39 (= sfEvent__2_ sf_previousEvent_1_)) (iff constraint40 (= (zero_extend[31] ?x222) bv1[32])) $x433 (iff constraint42 (= gtINDEX0 gtAGG__rtDWork)) (iff constraint43 $x232) (iff constraint44 (= gtINDEX2 gtAGG__rtDWork)) (iff constraint45 $x236) (iff constraint46 (= gtINDEX4 gtAGG__rtDWork)) (iff constraint47 $x240) (iff constraint48 (= gtINDEX6 gtAGG__rtDWork)) (iff constraint49 $x244) (iff constraint50 (= gtINDEX8 gtAGG__rtDWork)) (iff constraint51 $x248) (iff constraint52 (= gtINDEX10 gtAGG__rtDWork)) (iff constraint53 $x252) (iff constraint54 (= gtINDEX12 gtAGG__rtDWork)) (iff constraint55 $x256) (iff constraint56 (= gtINDEX14 gtAGG__rtDWork)) (iff constraint57 $x260) (iff constraint58 (= gtINDEX16 gtAGG__rtDWork)) (iff constraint59 $x264) (iff constraint60 (= gtINDEX18 gtAGG__rtDWork)) (iff constraint61 $x268) (iff constraint62 (= gtINDEX20 gtAGG__rtDWork)) (iff constraint63 $x272) (iff constraint64 (= gtINDEX22 gtAGG__rtDWork)) (iff constraint65 $x276) (iff constraint66 (= gtINDEX24 gtAGG__rtDWork)) (iff constraint67 (= gtINDEX25 gtAGG__rtDWork)) (iff constraint68 (= gtINDEX26 gtAGG__rtDWork)) (iff constraint69 (= gtINDEX27 gtAGG__rtDWork)) (iff constraint70 (= gtINDEX28 gtAGG__rtDWork)) (iff constraint71 (= gtINDEX29 gtAGG__rtDWork)) (iff constraint72 $x285) (iff constraint73 (= gtINDEX31 gtAGG__rtDWork)) (iff constraint74 $x289) (iff constraint75 (= gtINDEX33 gtAGG__rtDWork)) (iff constraint76 $x293) (iff constraint77 (= gtINDEX35 gtAGG__rtDWork)) (iff constraint78 $x297) (iff constraint79 (= gtINDEX37 gtAGG__rtDWork)) (iff constraint80 $x301) (iff constraint81 (= gtINDEX39 gtAGG__rtDWork)) (iff constraint82 $x305) (iff constraint83 (= gtINDEX41 gtAGG__rtDWork)) (iff constraint84 $x309) (iff constraint85 (= gtINDEX43 gtAGG__rtDWork)) (iff constraint86 $x313) (iff constraint87 (= gtINDEX45 gtAGG__rtDWork)) (iff constraint88 $x317) (iff constraint89 (= gtINDEX47 gtAGG__rtDWork)) (iff constraint90 $x321) (iff constraint91 (= gtINDEX49 gtAGG__rtDWork)) (iff constraint92 $x325) (iff constraint93 (= gtINDEX51 gtAGG__rtDWork)) (iff constraint94 $x329) (iff constraint95 (= gtINDEX53 gtAGG__rtDWork)) (iff constraint96 (= gtINDEX54 gtAGG__rtDWork)) (iff constraint97 (= gtINDEX55 gtAGG__rtDWork)) (iff constraint98 (= gtINDEX56 gtAGG__rtDWork)) (iff constraint99 (= gtINDEX57 gtAGG__rtDWork)) (iff constraint100 $x337) (iff constraint101 (= gtINDEX59 gtAGG__rtDWork)) (iff constraint102 $x341) (iff constraint103 (= gtINDEX61 gtAGG__rtDWork)) (iff constraint104 $x345) (iff constraint105 (= gtINDEX63 gtAGG__rtDWork)) (iff constraint106 $x349)))
(and $x564 $x565))))))))))))))))))))))))))))))))))))))))))))))))))))))))))))))))))))))))))))
)
